analyze/results_flowersnark/final_miplib_symretope_if_extended_generating_set_cpx_v802__settings_final_nopeek_norelabel_extend_norestarts__4__mspp16.mps.gz.sol
solution status: optimal solution found
objective value:                                  363
C560                                                1 	(obj:11)
C57290                                              1 	(obj:11)
C250277                                             1 	(obj:11)
C650369                                             1 	(obj:11)
C1340702                                            1 	(obj:11)
C2416700                                            1 	(obj:11)
C3986075                                            1 	(obj:11)
C6168827                                            1 	(obj:11)
C9097244                                            1 	(obj:11)
C12915902                                           1 	(obj:11)
C17781665                                           1 	(obj:11)
C23863685                                           1 	(obj:11)
C31343402                                           1 	(obj:11)
C40414544                                           1 	(obj:11)
C51283127                                           1 	(obj:11)
C104148527                                          1 	(obj:11)
C105538655                                          1 	(obj:11)
C109054295                                          1 	(obj:11)
C109764335                                          1 	(obj:11)
C111191327                                          1 	(obj:11)
C111908279                                          1 	(obj:11)
C350184879                                          1 	(obj:11)
C364297527                                          1 	(obj:11)
C373423455                                          1 	(obj:11)
C376051599                                          1 	(obj:11)
C379129415                                          1 	(obj:11)
C397859735                                          1 	(obj:11)
C400572359                                          1 	(obj:11)
C401932127                                          1 	(obj:11)
C404658575                                          1 	(obj:11)
C408765527                                          1 	(obj:11)
C414273719                                          1 	(obj:11)
C428673839                                          1 	(obj:11)
